(declare-fun temp7427_1 () (_ BitVec 64))
(declare-fun var139826 () (_ BitVec 64))
(declare-fun var139820 () (_ BitVec 64))
(declare-fun temp7427_2 () (_ BitVec 64))
(declare-fun var75949 () (_ BitVec 64))
(declare-fun k!0 () Bool)
(declare-fun ARGNAME_filter_sizes_NAMEEND_DIM () (_ BitVec 64))
(declare-fun ARGNAME_data_format_NAMEEND_STRFMT () (_ BitVec 64))
(declare-fun temp7427_3 () (_ BitVec 64))
(declare-fun var76022 () (_ BitVec 64))
(declare-fun var76026 () (_ BitVec 64))
(declare-fun temp7427_4 () (_ BitVec 64))
(declare-fun var76027 () (_ BitVec 64))
(declare-fun temp7427_5 () (_ BitVec 64))
(declare-fun temp7427_6 () (_ BitVec 64))
(declare-fun ARGNAME_input_NAMEEND_DIM () (_ BitVec 64))
(declare-fun var76042 () (_ BitVec 64))
(declare-fun temp7427_7 () (_ BitVec 64))
(declare-fun temp7427_8 () (_ BitVec 64))
(declare-fun ARGNAME_out_backprop_NAMEEND_DIM () (_ BitVec 64))
(declare-fun var76103 () (_ BitVec 64))
(declare-fun temp7427_9 () (_ BitVec 64))
(declare-fun temp7427_10 () (_ BitVec 64))
(declare-fun ARGNAME_input_NAMEEND_DIMSIZE
             ()
             (Array (_ BitVec 64) (_ BitVec 64)))
(declare-fun temp7427_11 () (_ BitVec 64))
(declare-fun temp7427_12 () (_ BitVec 64))
(declare-fun temp7427_13 () (_ BitVec 64))
(declare-fun temp7427_14 () (_ BitVec 64))
(declare-fun temp7427_15 () (_ BitVec 64))
(declare-fun temp7427_16 () (_ BitVec 64))
(declare-fun temp7427_17 () (_ BitVec 64))
(declare-fun temp7427_18 () (_ BitVec 64))
(declare-fun temp7427_19 () (_ BitVec 64))
(declare-fun temp7427_20 () (_ BitVec 64))
(declare-fun temp7427_21 () (_ BitVec 64))
(declare-fun temp7427_22 () (_ BitVec 64))
(declare-fun temp7427_23 () (_ BitVec 64))
(declare-fun var76131 () (_ BitVec 64))
(declare-fun temp7427_24 () (_ BitVec 64))
(declare-fun ARGNAME_out_backprop_NAMEEND_DIMSIZE
             ()
             (Array (_ BitVec 64) (_ BitVec 64)))
(declare-fun temp7427_25 () (_ BitVec 64))
(declare-fun temp7427_26 () (_ BitVec 64))
(declare-fun temp7427_27 () (_ BitVec 64))
(declare-fun temp7427_28 () (_ BitVec 64))
(declare-fun temp7427_29 () (_ BitVec 64))
(declare-fun temp7427_30 () (_ BitVec 64))
(declare-fun temp7427_31 () (_ BitVec 64))
(declare-fun temp7427_32 () (_ BitVec 64))
(declare-fun temp7427_33 () (_ BitVec 64))
(declare-fun temp7427_34 () (_ BitVec 64))
(declare-fun temp7427_35 () (_ BitVec 64))
(declare-fun temp7427_36 () (_ BitVec 64))
(declare-fun temp7427_37 () (_ BitVec 64))
(declare-fun var76165 () (_ BitVec 64))
(declare-fun temp7427_38 () (_ BitVec 64))
(declare-fun ARGNAME_input_NAMEEND_NUMELEMENT () (_ BitVec 64))
(declare-fun var76268 () (_ BitVec 64))
(declare-fun temp7427_39 () (_ BitVec 64))
(declare-fun temp7427_40 () (_ BitVec 64))
(declare-fun var341046 () (_ BitVec 64))
(declare-fun temp7427_41 () (_ BitVec 64))
(declare-fun var341064 () (_ BitVec 64))
(declare-fun temp7427_42 () (_ BitVec 64))
(declare-fun temp7427_44 () (_ BitVec 64))
(declare-fun temp7427_43 () (_ BitVec 64))
(declare-fun temp7427_46 () (_ BitVec 64))
(declare-fun temp7427_45 () (_ BitVec 64))
(declare-fun temp7427_47 () (_ BitVec 64))
(declare-fun var472118 () (_ BitVec 64))
(declare-fun temp7427_48 () (_ BitVec 64))
(declare-fun var472136 () (_ BitVec 64))
(declare-fun temp7427_49 () (_ BitVec 64))
(declare-fun temp7427_51 () (_ BitVec 64))
(declare-fun temp7427_50 () (_ BitVec 64))
(declare-fun temp7427_52 () (_ BitVec 64))
(declare-fun var668726 () (_ BitVec 64))
(declare-fun temp7427_53 () (_ BitVec 64))
(declare-fun var668744 () (_ BitVec 64))
(declare-fun temp7427_54 () (_ BitVec 64))
(declare-fun temp7427_56 () (_ BitVec 64))
(declare-fun temp7427_55 () (_ BitVec 64))
(declare-fun temp7427_58 () (_ BitVec 64))
(declare-fun temp7427_57 () (_ BitVec 64))
(declare-fun temp7427_60 () (_ BitVec 64))
(declare-fun temp7427_59 () (_ BitVec 64))
(declare-fun temp7427_62 () (_ BitVec 64))
(declare-fun temp7427_61 () (_ BitVec 64))
(declare-fun temp7427_63 () (_ BitVec 64))
(declare-fun var926795 () (_ BitVec 64))
(declare-fun var926774 () (_ BitVec 64))
(declare-fun var861206 () (_ BitVec 64))
(declare-fun temp7427_64 () (_ BitVec 64))
(declare-fun temp7427_65 () (_ BitVec 64))
(declare-fun var992331 () (_ BitVec 64))
(declare-fun var992310 () (_ BitVec 64))
(declare-fun var861216 () (_ BitVec 64))
(declare-fun temp7427_66 () (_ BitVec 64))
(declare-fun temp7427_68 () (_ BitVec 64))
(declare-fun temp7427_67 () (_ BitVec 64))
(declare-fun temp7427_70 () (_ BitVec 64))
(declare-fun temp7427_69 () (_ BitVec 64))
(declare-fun temp7427_72 () (_ BitVec 64))
(declare-fun temp7427_71 () (_ BitVec 64))
(declare-fun temp7427_73 () (_ BitVec 64))
(declare-fun var1188914 () (_ BitVec 64))
(declare-fun temp7427_74 () (_ BitVec 64))
(declare-fun var1188915 () (_ BitVec 64))
(declare-fun var1188916 () (_ BitVec 64))
(declare-fun var1188912 () (_ BitVec 64))
(declare-fun var795612 () (_ BitVec 64))
(declare-fun temp7427_75 () (_ BitVec 64))
(declare-fun var1254450 () (_ BitVec 64))
(declare-fun temp7427_76 () (_ BitVec 64))
(declare-fun var1254451 () (_ BitVec 64))
(declare-fun var1254452 () (_ BitVec 64))
(declare-fun var1254448 () (_ BitVec 64))
(declare-fun var795619 () (_ BitVec 64))
(declare-fun temp7427_77 () (_ BitVec 64))
(declare-fun var1319986 () (_ BitVec 64))
(declare-fun temp7427_78 () (_ BitVec 64))
(declare-fun var1319987 () (_ BitVec 64))
(declare-fun var1319988 () (_ BitVec 64))
(declare-fun var1319984 () (_ BitVec 64))
(declare-fun var795624 () (_ BitVec 64))
(declare-fun var76450 () (_ BitVec 64))
(declare-fun temp7427_79 () (_ BitVec 64))
(declare-fun temp7427_80 () (_ BitVec 64))
(declare-fun var76511 () (_ BitVec 64))
(declare-fun var76512 () (_ BitVec 64))
(declare-fun temp7427_82 () (_ BitVec 64))
(declare-fun temp7427_81 () (_ BitVec 64))
(declare-fun temp7427_84 () (_ BitVec 64))
(declare-fun temp7427_83 () (_ BitVec 64))
(assert (or (= ARGNAME_data_format_NAMEEND_STRFMT #x0000000000000000)
    (= ARGNAME_data_format_NAMEEND_STRFMT #x0000000000000001)
    (= ARGNAME_data_format_NAMEEND_STRFMT #x0000000000000002)
    (= ARGNAME_data_format_NAMEEND_STRFMT #x0000000000000003)
    (= ARGNAME_data_format_NAMEEND_STRFMT #x0000000000000004)
    (= ARGNAME_data_format_NAMEEND_STRFMT #x0000000000000005)))
(assert (= temp7427_1 #x0000000000000001))
(assert (= var139826
   (ite (= ARGNAME_filter_sizes_NAMEEND_DIM temp7427_1)
        #x0000000000000001
        #x0000000000000000)))
(assert (= var139820 var139826))
(assert (= var75949 var139820))
(assert (= temp7427_2 #x0000000000000001))
(assert (= var75949 temp7427_2))
(assert (= temp7427_3 #x0000000000000000))
(assert (= var76022 temp7427_3))
(assert (= var76026 var76022))
(assert (= temp7427_4 #x0000000000000000))
(assert (= var76027 (ite (= var76026 temp7427_4) #x0000000000000001 #x0000000000000000)))
(assert (= temp7427_5 #x0000000000000001))
(assert (= var76027 temp7427_5))
(assert (= temp7427_6 #x0000000000000005))
(assert (= var76042
   (ite (= ARGNAME_input_NAMEEND_DIM temp7427_6)
        #x0000000000000001
        #x0000000000000000)))
(assert (= temp7427_7 #x0000000000000001))
(assert (= var76042 temp7427_7))
(assert (= temp7427_8 #x0000000000000005))
(assert (= var76103
   (ite (= ARGNAME_out_backprop_NAMEEND_DIM temp7427_8)
        #x0000000000000001
        #x0000000000000000)))
(assert (= temp7427_9 #x0000000000000001))
(assert (= var76103 temp7427_9))
(assert (= temp7427_10 #x0000000000000000))
(assert (= temp7427_11 (select ARGNAME_input_NAMEEND_DIMSIZE temp7427_10)))
(assert (= temp7427_12 #x0000000000000001))
(assert (= temp7427_13 (select ARGNAME_input_NAMEEND_DIMSIZE temp7427_12)))
(assert (= temp7427_14 #x0000000000000002))
(assert (= temp7427_15 (select ARGNAME_input_NAMEEND_DIMSIZE temp7427_14)))
(assert (= temp7427_16 #x0000000000000003))
(assert (= temp7427_17 (select ARGNAME_input_NAMEEND_DIMSIZE temp7427_16)))
(assert (= temp7427_18 #x0000000000000004))
(assert (= temp7427_19 (select ARGNAME_input_NAMEEND_DIMSIZE temp7427_18)))
(assert (= temp7427_20 #x0000000000000005))
(assert (= temp7427_21 (select ARGNAME_input_NAMEEND_DIMSIZE temp7427_20)))
(assert (= temp7427_22 #x0000000000000004))
(assert (= temp7427_23 (select ARGNAME_input_NAMEEND_DIMSIZE temp7427_22)))
(assert (= var76131 temp7427_23))
(assert (= temp7427_24 #x0000000000000000))
(assert (= temp7427_25 (select ARGNAME_out_backprop_NAMEEND_DIMSIZE temp7427_24)))
(assert (= temp7427_26 #x0000000000000001))
(assert (= temp7427_27 (select ARGNAME_out_backprop_NAMEEND_DIMSIZE temp7427_26)))
(assert (= temp7427_28 #x0000000000000002))
(assert (= temp7427_29 (select ARGNAME_out_backprop_NAMEEND_DIMSIZE temp7427_28)))
(assert (= temp7427_30 #x0000000000000003))
(assert (= temp7427_31 (select ARGNAME_out_backprop_NAMEEND_DIMSIZE temp7427_30)))
(assert (= temp7427_32 #x0000000000000004))
(assert (= temp7427_33 (select ARGNAME_out_backprop_NAMEEND_DIMSIZE temp7427_32)))
(assert (= temp7427_34 #x0000000000000005))
(assert (= temp7427_35 (select ARGNAME_out_backprop_NAMEEND_DIMSIZE temp7427_34)))
(assert (= temp7427_36 #x0000000000000004))
(assert (= temp7427_37 (select ARGNAME_out_backprop_NAMEEND_DIMSIZE temp7427_36)))
(assert (= var76165 temp7427_37))
(assert (= temp7427_38 #x0000000000000000))
(assert (= var76268
   (ite (= ARGNAME_input_NAMEEND_NUMELEMENT temp7427_38)
        #x0000000000000001
        #x0000000000000000)))
(assert (= temp7427_39 #x0000000000000000))
(assert (= var76268 temp7427_39))
(assert (= temp7427_40 #x0000000000000001))
(assert (= var341046 temp7427_40))
(assert (= temp7427_41 #x0000000000000001))
(assert (= var341064
   (ite (bvslt var341046 temp7427_41) #x0000000000000001 #x0000000000000000)))
(assert (= temp7427_42 #x0000000000000000))
(assert (= var341064 temp7427_42))
(assert (= temp7427_44 #x0000000000000000))
(assert (= temp7427_43 temp7427_44))
(assert (= temp7427_46 #x0000000000000000))
(assert (= temp7427_45 temp7427_46))
(assert (= temp7427_47 #x0000000000000001))
(assert (= var472118 temp7427_47))
(assert (= temp7427_48 #x0000000000000001))
(assert (= var472136
   (ite (bvslt var472118 temp7427_48) #x0000000000000001 #x0000000000000000)))
(assert (= temp7427_49 #x0000000000000000))
(assert (= var472136 temp7427_49))
(assert (= temp7427_51 #x0000000000000000))
(assert (= temp7427_50 temp7427_51))
(assert (= temp7427_52 #x0000000000000001))
(assert (= var668726 temp7427_52))
(assert (= temp7427_53 #x0000000000000001))
(assert (= var668744
   (ite (bvslt var668726 temp7427_53) #x0000000000000001 #x0000000000000000)))
(assert (= temp7427_54 #x0000000000000000))
(assert (= var668744 temp7427_54))
(assert (= temp7427_56 #x0000000000000000))
(assert (= temp7427_55 temp7427_56))
(assert (= temp7427_58 #x00000000000000ff))
(assert (= temp7427_57 temp7427_58))
(assert (= temp7427_60 #x00000000000000ff))
(assert (= temp7427_59 temp7427_60))
(assert (= temp7427_62 #x00000000000000ff))
(assert (= temp7427_61 temp7427_62))
(assert (= temp7427_63 #x0000000000000000))
(assert (= var926795 temp7427_63))
(assert (= var926774 var926795))
(assert (= var861206 var926774))
(assert (= temp7427_64 #x0000000000000000))
(assert (= var861206 temp7427_64))
(assert (= temp7427_65 #x0000000000000000))
(assert (= var992331 temp7427_65))
(assert (= var992310 var992331))
(assert (= var861216 var992310))
(assert (= temp7427_66 #x0000000000000000))
(assert (= var861216 temp7427_66))
(assert (= temp7427_68 #x0000000000000000))
(assert (= temp7427_67 temp7427_68))
(assert (= temp7427_70 #x0000000000000000))
(assert (= temp7427_69 temp7427_70))
(assert (= temp7427_72 #x0000000000000000))
(assert (= temp7427_71 temp7427_72))
(assert (= temp7427_73 #x0000000000008000))
(assert (= var1188914 temp7427_73))
(assert (= temp7427_74 #x0000000000000001))
(assert (= var1188915
   (ite (bvslt temp7427_71 temp7427_74) #x0000000000000001 #x0000000000000000)))
(assert (= var1188916 (ite (= var1188915 #x0000000000000001) var1188914 temp7427_71)))
(assert (= var1188912 var1188916))
(assert (= var795612 var1188912))
(assert (= temp7427_75 #x0000000000040000))
(assert (= var1254450 temp7427_75))
(assert (= temp7427_76 #x0000000000000001))
(assert (= var1254451
   (ite (bvslt temp7427_69 temp7427_76) #x0000000000000001 #x0000000000000000)))
(assert (= var1254452 (ite (= var1254451 #x0000000000000001) var1254450 temp7427_69)))
(assert (= var1254448 var1254452))
(assert (= var795619 var1254448))
(assert (= temp7427_77 #x0000000000200000))
(assert (= var1319986 temp7427_77))
(assert (= temp7427_78 #x0000000000000001))
(assert (= var1319987
   (ite (bvslt temp7427_67 temp7427_78) #x0000000000000001 #x0000000000000000)))
(assert (= var1319988 (ite (= var1319987 #x0000000000000001) var1319986 temp7427_67)))
(assert (= var1319984 var1319988))
(assert (= var795624 var1319984))
(assert (= var76450 var795624))
(assert (= temp7427_79 #x0000000000000003))
(assert (= temp7427_80 #xffffffffffffffff))
(assert (= var76512 (bvadd var76511 temp7427_80)))
(assert (= temp7427_82 #x0000000000000000))
(assert (= temp7427_81 temp7427_82))
(assert (= temp7427_84 #x0000000000000000))
(assert (= temp7427_83 temp7427_84))
(model-add temp7427_1 () (_ BitVec 64) #x0000000000000001)
(model-add var139826 () (_ BitVec 64) #x0000000000000001)
(model-add var139820 () (_ BitVec 64) #x0000000000000001)
(model-add temp7427_2 () (_ BitVec 64) #x0000000000000001)
(model-add var75949 () (_ BitVec 64) #x0000000000000001)
(model-del k!0)
(model-add ARGNAME_filter_sizes_NAMEEND_DIM
           ()
           (_ BitVec 64)
           (ite k!0 #x0000000000000001 (bvnot #x0000000000000001)))


